
  32    4
  10   10   10   10

   0   0   0   0   0   3 2 14 31 
   8   1   0   1   1   1 3 
   1   2   1   0   7   2 22 4 
   5   5   0   2   3   3 30 9 5 
   3   4   0   4   2   2 21 6 
  10   0   5   2   4   1 7 
   9   4   0   4   4   1 8 
   3   5   0   7   2   2 28 10 
   5   6   0   5   2   1 10 
   6   5   5   3   0   1 11 
   1   0   4   3   3   1 12 
   8   3   4   0   3   1 13 
   3   0   5   4   3   1 15 
   6   4   0   4   3   1 15 
   5   0   6   2  10   4 27 26 24 16 
  10   5   5   3   0   2 25 17 
   7   2   6   3   0   1 18 
   8   6   0   2   6   1 19 
   9   0   2   2   4   1 20 
   7   0   3   6   7   1 23 
  10   0   3   7   4   1 24 
  10   3   6   0   5   1 29 
   4   5   5   0   4   1 32
   3   7   2   5   0   1 32
   4   3   5   4   0   1 32
  10   2   2   7   0   1 32
   2   1   0   3   4   1 32
   2   0   4   4   3   1 32
   6   8   3   8   0   1 32
   3   0   2   4   4   1 32
   8   3   6   5   0   1 32
   0   0   0   0   0   0 
